#=======================================================
# FHI-aims file: ./geometry.in
# Created using the Atomic Simulation Environment (ASE)
# Wed May 24 00:40:04 2023
#=======================================================
lattice_vector 0.0000000000000000 2.7218499999999999 2.7218499999999999 
lattice_vector 2.7218499999999999 0.0000000000000000 2.7218499999999999 
lattice_vector 2.7218499999999999 2.7218499999999999 0.0000000000000000 
atom_frac 0.1250000000000000 0.1250000000000000 0.1250000000000000 Si
atom_frac 0.8750000000000000 0.8750000000000000 0.8750000000000000 Si
