generate with stepsize: 0.01
61
Reciprocal
   0.0000000000    0.4444440000    0.4444440000 0.01
   0.0000000000    0.4280715685    0.4280715685 0.01
   0.0000000000    0.4362577843    0.4362577843 0.01
   0.0000000000    0.4526302157    0.4526302157 0.01
   0.0000000000    0.4608164315    0.4608164315 0.01
  -0.0163724315    0.4444440000    0.4280715685 0.01
  -0.0081862157    0.4444440000    0.4362577843 0.01
   0.0081862157    0.4444440000    0.4526302157 0.01
   0.0163724315    0.4444440000    0.4608164315 0.01
  -0.0163724315    0.4280715685    0.4444440000 0.01
  -0.0081862157    0.4362577843    0.4444440000 0.01
   0.0081862157    0.4526302157    0.4444440000 0.01
   0.0163724315    0.4608164315    0.4444440000 0.01
  -0.0163724315    0.4280715685    0.4116991370 0.01
  -0.0163724315    0.4362577843    0.4198853528 0.01
  -0.0163724315    0.4526302157    0.4362577843 0.01
  -0.0163724315    0.4608164315    0.4444440000 0.01
  -0.0081862157    0.4280715685    0.4198853528 0.01
  -0.0081862157    0.4362577843    0.4280715685 0.01
  -0.0081862157    0.4526302157    0.4444440000 0.01
  -0.0081862157    0.4608164315    0.4526302157 0.01
   0.0081862157    0.4280715685    0.4362577843 0.01
   0.0081862157    0.4362577843    0.4444440000 0.01
   0.0081862157    0.4526302157    0.4608164315 0.01
   0.0081862157    0.4608164315    0.4690026472 0.01
   0.0163724315    0.4280715685    0.4444440000 0.01
   0.0163724315    0.4362577843    0.4526302157 0.01
   0.0163724315    0.4526302157    0.4690026472 0.01
   0.0163724315    0.4608164315    0.4771888630 0.01
  -0.0163724315    0.4116991370    0.4280715685 0.01
  -0.0163724315    0.4198853528    0.4362577843 0.01
  -0.0163724315    0.4362577843    0.4526302157 0.01
  -0.0163724315    0.4444440000    0.4608164315 0.01
  -0.0081862157    0.4198853528    0.4280715685 0.01
  -0.0081862157    0.4280715685    0.4362577843 0.01
  -0.0081862157    0.4444440000    0.4526302157 0.01
  -0.0081862157    0.4526302157    0.4608164315 0.01
   0.0081862157    0.4362577843    0.4280715685 0.01
   0.0081862157    0.4444440000    0.4362577843 0.01
   0.0081862157    0.4608164315    0.4526302157 0.01
   0.0081862157    0.4690026472    0.4608164315 0.01
   0.0163724315    0.4444440000    0.4280715685 0.01
   0.0163724315    0.4526302157    0.4362577843 0.01
   0.0163724315    0.4690026472    0.4526302157 0.01
   0.0163724315    0.4771888630    0.4608164315 0.01
  -0.0327448630    0.4280715685    0.4280715685 0.01
  -0.0245586472    0.4280715685    0.4362577843 0.01
  -0.0081862157    0.4280715685    0.4526302157 0.01
   0.0000000000    0.4280715685    0.4608164315 0.01
  -0.0245586472    0.4362577843    0.4280715685 0.01
  -0.0163724315    0.4362577843    0.4362577843 0.01
   0.0000000000    0.4362577843    0.4526302157 0.01
   0.0081862157    0.4362577843    0.4608164315 0.01
  -0.0081862157    0.4526302157    0.4280715685 0.01
   0.0000000000    0.4526302157    0.4362577843 0.01
   0.0163724315    0.4526302157    0.4526302157 0.01
   0.0245586472    0.4526302157    0.4608164315 0.01
   0.0000000000    0.4608164315    0.4280715685 0.01
   0.0081862157    0.4608164315    0.4362577843 0.01
   0.0245586472    0.4608164315    0.4526302157 0.01
   0.0327448630    0.4608164315    0.4608164315 0.01
